data/CVRPLIB/Vrp-Set-XML100/instances/XML100_2111_25.vrp
NAME : XML100_2111_25
COMMENT : Generated by Queiroga, Sadykov, Uchoa, and Vidal (2021)
TYPE : CVRP
DIMENSION : 101
EDGE_WEIGHT_TYPE : EUC_2D
CAPACITY : 3
NODE_COORD_SECTION
1    500  500 
2    847  236 
3    682  383 
4    692  898 
5    818  603 
6    711  729 
7    816  788 
8    478  921 
9    638  288 
10   715  553 
11   397  219 
12   505  943 
13   316  652 
14   103  99  
15   2    745 
16   780  378 
17   924  303 
18   430  570 
19   664  395 
20   749  693 
21   513  89  
22   666  942 
23   95   967 
24   680  471 
25   138  870 
26   428  486 
27   420  56  
28   4    392 
29   748  880 
30   919  610 
31   516  695 
32   478  485 
33   297  818 
34   681  728 
35   920  947 
36   12   192 
37   17   893 
38   453  276 
39   896  4   
40   496  974 
41   230  593 
42   721  590 
43   703  402 
44   342  961 
45   978  45  
46   523  619 
47   886  374 
48   442  599 
49   316  906 
50   325  146 
51   433  543 
52   377  129 
53   87   684 
54   355  379 
55   292  979 
56   122  291 
57   527  629 
58   365  435 
59   256  428 
60   261  870 
61   813  666 
62   357  973 
63   347  158 
64   748  720 
65   622  982 
66   655  987 
67   296  365 
68   823  488 
69   678  845 
70   53   946 
71   389  387 
72   375  132 
73   125  849 
74   658  460 
75   441  149 
76   241  272 
77   738  85  
78   497  588 
79   924  794 
80   530  8   
81   854  163 
82   471  630 
83   189  677 
84   7    142 
85   687  856 
86   205  686 
87   767  303 
88   978  337 
89   927  973 
90   446  703 
91   746  508 
92   127  737 
93   583  448 
94   420  210 
95   779  636 
96   899  136 
97   785  405 
98   791  768 
99   724  966 
100  423  203 
101  49   430 
DEMAND_SECTION
1    0   
2    1   
3    1   
4    1   
5    1   
6    1   
7    1   
8    1   
9    1   
10   1   
11   1   
12   1   
13   1   
14   1   
15   1   
16   1   
17   1   
18   1   
19   1   
20   1   
21   1   
22   1   
23   1   
24   1   
25   1   
26   1   
27   1   
28   1   
29   1   
30   1   
31   1   
32   1   
33   1   
34   1   
35   1   
36   1   
37   1   
38   1   
39   1   
40   1   
41   1   
42   1   
43   1   
44   1   
45   1   
46   1   
47   1   
48   1   
49   1   
50   1   
51   1   
52   1   
53   1   
54   1   
55   1   
56   1   
57   1   
58   1   
59   1   
60   1   
61   1   
62   1   
63   1   
64   1   
65   1   
66   1   
67   1   
68   1   
69   1   
70   1   
71   1   
72   1   
73   1   
74   1   
75   1   
76   1   
77   1   
78   1   
79   1   
80   1   
81   1   
82   1   
83   1   
84   1   
85   1   
86   1   
87   1   
88   1   
89   1   
90   1   
91   1   
92   1   
93   1   
94   1   
95   1   
96   1   
97   1   
98   1   
99   1   
100  1   
101  1   
DEPOT_SECTION
1
-1
EOF
